%chk=input
%mem=50000000
%nprocshared=4
%subst l701 /home/tgraen/Software/g03/devel/l701
%subst l301 /home/tgraen/Software/g03/devel/l301
%subst l9999 /home/tgraen/Software/g03/devel/l9999
#P  B3LYP/6-31G* Charge 
Nosymm units=bohr
FORCE Punch=(Derivatives) Pop=(MK,ESPDipole)iop(3/33=1)

input-file generated by gromacs

-1 1
  6 59.6912522  60.3545817  88.0047297
 16 61.6031793  61.8167154  85.2285297
  6 63.6232959  59.3751898  83.8924992
  8 63.6837637  57.3116090  85.0225492
  6 64.7911466  59.8948673  81.5473454
  6 66.5996149  58.2375752  80.7612241
  6 67.8241533  58.2394630  78.4236303
  6 67.4348727  60.1953318  76.6907501
  6 68.4439871  59.8873072  74.3323727
  6 69.8858463  57.6952262  73.3837306
  6 70.3431593  55.8527418  75.3150311
  6 69.3680610  56.2212387  77.6677407
  1 69.1904289  54.5922949  79.0888161
  1 71.6640784  54.3012783  74.9125180
  8 70.7267765  57.5062538  71.2256613
  1 68.2757984  61.2214543  72.7657890
  1 66.4900106  61.9508880  77.1877472
  1 67.0550356  56.7239036  82.0878111
  1 64.2639134  61.5294790  80.3776023
  1 59.1219651  62.1889924  88.7207461
  1 61.2214543  59.5263704  89.4974240
  1 58.4597348  59.0187225  87.5243758

62.3572037  78.5104685  50.2194687  -0.0024
62.9823540  76.5481524  50.2553547   0.0978
62.8617068  79.7369713  52.7800420  -0.0343
61.9488921  81.5834611  52.7819388   0.0295
64.8898252  79.9165498  53.0919143   0.0295
61.9735639  78.0948130  54.9381158   0.0118
59.5094389  78.0380532  55.9019278  -0.1256
58.1648616  79.2521480  54.9620443   0.1330
58.7043902  76.2939004  57.7235475  -0.1704
56.8479794  76.6247272  58.5043028   0.1430
60.5789265  74.7102860  58.7081523  -0.1072
59.9101904  73.4710373  60.1854288   0.1297
63.1149856  74.8085636  57.9598002  -0.1704
64.6736848  73.8053333  58.8137737   0.1430
63.7291832  76.3770441  55.9207426  -0.1256
65.5954159  76.1900406  55.1160724   0.1330
59.5414863  78.6390543  49.6468791   0.5973
58.4360271  76.3713402  49.6563495  -0.4157
59.4957288  74.8885219  50.2230280   0.2719
55.7526215  73.8038690  48.7776231   0.0698
60.1140624  66.1479202  45.1852593   0.0236
60.8907537  69.7705066  46.6006849  -0.0660
62.4286918  69.0091608  47.7399260   0.0186
61.3293150  71.6911922  45.9995037   0.0186
59.1825499  69.9198535  47.7419670   0.0186
66.4571523  58.3442825  42.0757725   0.0457
65.9476571  63.2566598  43.9871499  -0.4121
66.3010292  61.7789642  45.3779487   0.1000
66.9758071  64.9746810  44.4709911   0.1000
63.9651610  63.7480610  44.2536252   0.1000
70.4060780  61.8295650  41.8806772   0.1000
74.4007160  53.5415545  41.8180378   0.0241
71.1830487  54.3791101  41.3912493   0.0241
70.9403126  48.8210692  42.8873316  -0.5679
74.0180855  45.7406246  44.6546515   0.0880
77.1575156  47.9536875  45.2608294   0.5366
77.7697803  50.0928563  44.5975313  -0.5819
77.8907158  47.0428235  47.4963790  -0.5163
77.2085985  45.3800438  48.1388167   0.2936
79.2323690  48.4507656  49.4239355   0.0381
78.0275736  49.9577106  50.1452998   0.0880
79.6557739  46.7575785  51.7180831  -0.0303
77.9808249  45.5722061  51.8976076  -0.0122
79.5310719  48.0229679  53.3385836  -0.0122
82.1180427  45.2797252  51.8748685   0.7994
82.6698441  43.4315729  50.5123775  -0.8014
83.8074542  45.9033347  53.4036560  -0.8014
81.6909613  49.7224716  48.6396569   0.5366
82.2559908  51.6972318  49.7262517  -0.5819
82.9816579  48.8437677  46.6592379  -0.4157
82.1708106  47.4072971  45.6990707   0.2719
86.5764545  50.5070205  47.2249341   0.0698
80.4002828  55.8867580  42.6813511   0.5973
79.3363730  55.2632477  44.8828575  -0.4157
79.1831784  53.4098555  45.3121645   0.2719
77.7564621  56.9129436  46.3927040  -0.0518
76.3441272  57.9665269  45.3259062   0.0922
76.4356511  55.1024614  48.2069257  -0.1102
77.8052562  54.6793583  49.6860991   0.0457
75.9595864  53.3664634  47.2057003   0.0457
73.8561639  55.9472437  49.1763516   0.3531
74.1074648  57.6931041  50.2401172  -0.0361
71.8133577  56.1872269  47.1543381  -0.4121
72.2612228  57.6498427  45.7748615   0.1000
71.1557411  54.5072589  46.1603395   0.1000
70.0994861  56.8126881  48.1104819   0.1000
72.6996714  54.1802212  51.1397535  -0.4121
71.1026218  55.2122594  51.9316643   0.1000
72.2010524  52.2954891  50.4749687   0.1000
73.9919178  53.9347278  52.7248772   0.1000
79.3609368  58.8479566  47.7930589   0.5973
78.1363894  60.3313921  49.0950821  -0.5679
81.8705038  58.7174876  47.5681599  -0.5163
82.2349954  56.9252570  47.0223688   0.2936
83.6657305  60.3805242  48.7945996   0.0381
82.9816038  60.5298215  50.7317257   0.0880
86.1072742  58.8517592  48.9193062  -0.0303
86.8385010  58.5210766  47.0222741  -0.0122
85.7953974  56.9635624  49.6810304  -0.0122
88.0480002  60.0290354  50.6862296   0.7994
90.1455972  60.2992682  49.6374311  -0.8014
87.8382441  60.6696529  52.9501231  -0.8014
83.9567471  62.9845662  47.6078665   0.5366
84.5217765  64.8157104  48.9212255  -0.5819
83.3142417  63.1149541  45.1720043  -0.4157
82.6982195  61.5201121  44.3235680   0.2719
79.8579248  66.9076575  46.0167055  -0.4157
80.2831950  65.3313240  47.0052210   0.2719
77.9530713  68.6027640  47.0163360  -0.0518
77.2635921  69.8986012  45.5712734   0.0922
75.6363378  67.1570121  47.9423517  -0.1102
74.4151515  68.4197973  49.0179262   0.0457
76.4825980  65.7043579  49.1324864   0.0457
74.2019623  65.9231069  45.7672879   0.3531
75.5098696  64.8590168  44.5841276  -0.0361
72.3217356  64.2052839  47.1203309  -0.4121
71.0762738  65.2863370  48.3544074   0.1000
71.0064257  63.3795056  45.7672473   0.1000
73.3154278  62.6750727  48.0762584   0.1000
72.8280950  67.9205475  44.2064621  -0.4121
71.4850675  68.8612556  45.4531043   0.1000
78.9924354  70.3053675  49.0894143   0.5973
80.7007518  69.5910497  50.4915893  -0.5679
77.8491394  72.5503605  49.2122330  -0.4157
76.4376335  72.8432468  47.9613467   0.2719
78.5709588  74.5459134  50.9432119   0.0337
80.5258950  74.3889928  51.5728001   0.0823
78.6032359  76.9779731  49.3918206  -0.1825
76.9345224  74.4835489  53.3072797   0.5973
76.5849259  76.4715416  54.4581223  -0.5679
75.7383324  72.3575945  53.9460005  -0.4157
76.1804710  70.8101139  52.9200086   0.2719
74.2019938  72.1440809  56.2023653  -0.0024
75.2676157  72.9848624  57.7516616   0.0978
71.6943190  73.5027828  55.7752569  -0.0343
72.2631241  75.4681176  55.5371525   0.0295
70.5415346  73.3818338  57.4779730   0.0295
70.1560791  72.7525610  53.4924721   0.0118
68.9882284  70.3809465  53.3772134  -0.1256
68.8332812  69.2925586  55.0967169   0.1330
67.5501629  69.7422573  51.2512591  -0.1704
66.5105600  67.9862732  51.2191262   0.1430
67.4102909  71.4467576  49.2311199  -0.1072
66.3654527  71.1444549  47.5042095   0.1297
68.4213112  73.8902206  49.3066764  -0.1704
68.5780876  75.1897524  47.7408136   0.1430
69.8102492  74.4457391  51.4893635  -0.1256
70.6323871  76.3111383  51.5876411   0.1330
73.7692356  69.3850691  56.8902000   0.5973
74.3474885  67.5992769  55.5220412  -0.5679
72.8640620  68.9333925  59.2013152  -0.4157
72.4141695  70.3832578  60.3581771   0.2719
72.6731748  66.4144315  60.2596247  -0.0252
72.4596972  66.5504468  62.3038140   0.0698
74.3608923  65.3522879  59.7436326   0.0698
70.5151236  65.0330311  58.9556731   0.5973
68.4553229  66.0742695  58.6986683  -0.5679
71.1255050  62.7200057  58.1525392  -0.4157
72.8432694  62.0472642  58.6419761   0.2719
69.4077766  61.4368738  56.4480074   0.0337
67.4514888  62.0662863  56.3081399   0.0823
70.2959195  62.0000966  53.7626914  -0.1825
70.6906968  64.0060436  53.5114806   0.0603
72.0024022  60.9285050  53.3356145   0.0603
68.7369545  61.3896656  52.5627798   0.0603
69.3472729  58.6098522  56.9771283   0.5973
71.2256613  57.2492490  57.0924005  -0.5679
67.0418120  57.6612100  57.3701935  -0.4157
65.4921959  58.7402672  57.0923960   0.2719
66.5070142  55.0420477  57.9616745  -0.0597
68.1831932  53.8931064  57.6253060   0.0869
65.7342291  54.9777233  60.7395641   0.1303
64.0168837  56.1068631  60.8757416   0.0187
65.1690915  52.2679066  61.5465186  -0.3204
63.7329903  51.4894131  60.2917892   0.0882
66.9280853  51.1966619  61.5124754   0.0882
64.2829986  52.1753555  63.4036819   0.0882
67.6804742  56.1908719  62.4876457  -0.0430
68.3066518  57.9274826  61.5739298   0.0236
69.1149759  54.7319956  62.7256961   0.0236
66.4427709  56.9052798  64.9933921  -0.0660
65.5375253  58.7554821  64.9857869   0.0186
65.2809034  55.4109591  65.8057036   0.0186
67.8900005  57.1490431  66.4386889   0.0186
64.4642216  54.0631694  56.1891147   0.5973
62.8522859  55.5900691  55.5125887  -0.5679
64.4093902  51.6235586  55.5465869  -0.4157
65.7931289  50.5177030  56.2573634   0.2719
62.3798346  50.3196430  54.2521328  -0.0031
60.8721147  51.6195307  53.7231110   0.0850
63.1962866  49.2726647  51.6934608  -0.0036
64.5882163  47.8070573  52.0900897   0.0171
64.2467747  50.6633824  50.5956609   0.0171
61.0457415  48.4998391  49.9340930  -0.0645
60.0989601  50.1665476  49.1801226   0.0352
59.5958897  47.5528053  51.0493650   0.0352
62.1776522  46.8595370  47.8610913   0.6951
62.6368574  44.5824155  47.9423472  -0.6086
63.1319712  48.0047253  45.8277376  -0.9407
63.0053769  49.9035820  45.6822564   0.4251
63.9803805  46.9843472  44.4559203   0.4251
61.4255426  48.2900559  56.0549422   0.5973
62.9014179  46.8576447  57.1320845  -0.5679
58.9272842  47.9688438  56.1834018  -0.4157
57.8545122  49.0775063  55.0596280   0.2719
57.5742321  46.2964449  57.8784722  -0.0518
58.7389471  45.1355146  59.1188202   0.0922
56.2571742  48.0197915  59.7796222  -0.1102
55.1668038  46.8520129  61.0796856   0.0457
54.9471357  49.2334267  58.7531393   0.0457
57.8256592  49.7754603  61.4443844   0.3531
58.7075981  51.2900511  60.3622680  -0.0361
55.9793767  51.0452290  63.2586241  -0.4121
56.9638372  52.3415483  64.5208327   0.1000
54.6920547  52.2588552  62.2037838   0.1000
54.9439639  49.6074428  64.3090852   0.1000
59.9704194  48.4808576  62.8730921  -0.4121
59.1789546  46.9413651  63.9894815   0.1000
61.2535422  47.6419053  61.4973956   0.1000
61.1100974  49.6489155  64.1298986   0.1000
55.6769974  44.6863519  56.4328870   0.5973
54.6735508  45.4422416  54.4807983  -0.5679
55.0704005  42.5736346  57.6725638  -0.5163
55.7562709  42.3469020  59.4392033   0.2936
53.1050928  40.8010659  56.9714920   0.0381
52.3660445  41.2263495  55.0964646   0.0880
53.8874430  38.0382921  57.2284563  -0.0303
54.2785798  37.6471372  59.2125923  -0.0122
55.7070217  37.7586473  56.3044950  -0.0122
51.0906305  41.3963360  58.9348849   0.5366
51.7369159  42.0123897  61.0778339  -0.5819
49.6071950  38.3614370  66.8830713   0.5366
49.4579066  38.2045885  69.1942089  -0.5819
51.2040103  39.9677093  65.7699348  -0.4157
51.1549144  40.0186976  63.8626258   0.2719
53.0238053  41.6174728  66.9775913  -0.0252
52.4098466  41.9990446  68.9063823   0.0698
52.8575584  43.3291909  65.8439415   0.0698
55.7847093  40.8993389  66.6166185   0.5973
57.4835733  42.1182139  67.6257329  -0.5679
56.2836483  39.1173537  64.9026612  -0.4157
54.7163121  38.3157247  64.1653115   0.2719
58.7742023  38.1157769  64.3601951   0.0143
59.8199281  38.0609365  66.1339578   0.1048
58.7912194  35.5363415  63.0694805  -0.2041
57.7299993  35.7798953  61.3209709   0.0797
57.9463604  34.0317236  64.1942546   0.0797
61.4463308  34.5479702  62.5801653   0.7130
63.1470825  35.0166234  64.0881690  -0.5931
61.8393599  33.2969645  60.4239658  -0.9191
60.5830400  32.7396416  59.0996180   0.4196
63.6952300  32.9133338  60.1972061   0.4196
60.3011560  39.9884930  62.7993738   0.5973
59.4507779  40.8105228  60.8000454  -0.5679
62.5631527  40.6839149  63.6743067  -0.4157
63.2094786  39.9487639  65.3128020   0.2719
64.2336863  42.4300096  62.3855295  -0.0597
63.1451091  43.8776628  61.4046733   0.0869
66.1895101  43.7018418  64.0824787   0.1303
67.4371480  42.2065705  64.7535576   0.0187
67.8789486  45.2306518  62.3156318  -0.3204
69.2152494  44.0266042  61.3119645   0.0882
66.9776859  46.4625206  60.9325148   0.0882
68.9539464  46.4472741  63.5833010   0.0882
65.2295502  45.1303828  66.3955537  -0.0430
63.5669461  44.2273359  67.2098296   0.0236
64.5698746  46.9393737  65.6640115   0.0236
67.1155529  45.5859567  68.5289691  -0.0660
67.6864575  43.7690362  69.3136036   0.0186
68.8835351  46.4075405  67.8641257   0.0186
66.4824234  46.9011719  69.9822901   0.0186
65.6169565  40.9900473  60.3143840   0.5973
67.2251121  39.3970075  60.8340571  -0.5679
65.0594556  41.6892718  57.9560021  -0.4157
63.5727176  42.8586319  57.7009707   0.2719
66.0043718  40.7178275  55.5768455  -0.0518
66.4538453  38.7084113  55.6316139   0.0922
63.8330655  41.1204893  53.7229127  -0.1102
64.4241140  40.9485926  51.7572310   0.0457
63.0453268  43.0019099  54.0101492   0.0457
61.5748264  39.3743360  54.1349999   0.3531
61.0627766  39.6180768  56.1151937  -0.0361
59.3128117  40.1586101  52.5287817  -0.4121
58.4759680  41.7076090  53.5979313   0.1000
59.8836442  40.8654669  50.6801923   0.1000
57.8840274  38.6938542  52.2924704   0.1000
62.2814940  36.6644653  53.4471472  -0.4121
63.9186917  35.8553662  54.3998893   0.1000
60.7230516  35.6197713  54.2972324   0.1000
62.5008377  36.3412573  51.4247192   0.1000
68.3797348  41.9386895  54.5091466   0.5973
70.0804866  40.6858027  53.5453842  -0.5679
68.6310898  44.4368892  54.7661335  -0.4157
67.2663686  45.4802812  55.5978230   0.2719
70.8363672  46.0035000  54.3390701  -0.0031
72.5127084  44.8468769  54.6471218   0.0850
70.5812141  46.9295023  51.6197515  -0.0036
72.2650074  47.9480151  51.0112624   0.0171
69.0757604  48.3310646  51.5101968   0.0171
69.7970167  44.9868660  49.6392603  -0.0645
69.4910375  46.2258894  48.0224813   0.0352
68.0169058  44.0003780  49.9567960   0.0352
71.9021828  43.1273284  49.0251619   0.6951
74.0659200  43.3049605  49.8509718  -0.6086
71.6471784  41.1600788  47.4679991  -0.9407
69.8720776  40.4588178  47.4774786   0.4251
73.0350577  39.9741972  46.9109443   0.4251
71.0140129  48.2598243  56.1135222   0.5973
69.0978327  49.4257827  56.7163479  -0.5679
73.3006004  49.0705048  56.8108229  -0.4157
74.8178088  48.4035349  55.8642127   0.2719
73.8750057  51.0869090  58.5701636  -0.0014
72.4584086  52.5809458  58.5078351   0.0876
74.0093674  49.7167857  61.1023976  -0.0152
75.5883097  48.4002684  61.2308437   0.0295
72.1564123  48.8376538  61.2933524   0.0295
74.2114282  51.3835393  63.4097552  -0.0011
76.5603712  52.3473018  64.1486233  -0.1906
77.9907279  52.2962820  62.6937118   0.1699
76.8401331  53.6720236  66.4220142  -0.2341
78.7040050  54.1837850  67.0772925   0.1656
74.7783455  53.8099491  68.1000540   0.3226
75.2205201  54.8927684  70.3960804  -0.5579
73.6977565  55.6012516  71.0818921   0.3992
72.3916963  52.8707504  67.3800097  -0.2341
70.8317491  52.9407112  68.6941437   0.1656
72.1307717  51.7274319  65.0084539  -0.1906
70.3326390  50.8057008  64.7213571   0.1699
76.2750135  52.3983216  57.6801059   0.5973
78.0740248  51.0679545  57.0564965  -0.5679
76.2655070  54.9079112  57.4117879  -0.4157
74.6959857  55.8201583  58.0010657   0.2719
78.5124599  56.2930286  56.6842060   0.0143
79.6744445  54.9987863  55.5807968   0.1048
77.9285616  58.2111417  54.6112719  -0.2041
76.4404629  57.6854764  53.2876314   0.0797
79.6938631  58.4587211  53.5791976   0.0797
77.1480631  60.7698092  55.6675494   0.7130
76.5357894  61.1345260  57.8785263  -0.5931
77.1537220  62.6727840  54.0103204  -0.9191
77.4430084  62.2076585  52.1819831   0.4196
76.5301396  64.4320616  54.4089813   0.4196
80.1262699  57.0999606  58.9235447   0.5973
79.4157321  56.6142993  61.0816139  -0.5679
82.5224526  57.7726976  58.5153322  -0.4157
83.1477921  57.4817576  56.7356853   0.2719
84.3857027  58.5455683  60.3673457   0.0337
84.0834676  57.4140541  62.0617808   0.0823
86.9443973  57.8746696  59.2164445  -0.1825
87.0615752  58.7724271  57.3662872   0.0603
88.6131558  58.2791831  60.3541582   0.0603
86.9632932  55.8327465  58.9463243   0.0603
83.9775353  61.1931060  61.4123145   0.5973
84.4386238  61.5521550  63.6591999  -0.5679
82.8304817  62.9826603  60.0535000  -0.4157
82.9815317  62.6484545  58.1804460   0.2719
82.3618150  65.5338083  60.9266532   0.0337
83.8547345  65.9306580  62.2891803   0.0823
82.6566431  67.3119593  58.6759518  -0.1825
84.4684950  67.2137899  57.7010923   0.0603
81.2432450  66.9775913  57.2153769   0.0603
82.4051665  69.3368472  58.9576870   0.0603
79.9618657  65.6944323  62.5064650   0.5973
79.5517970  67.4783368  63.9369884  -0.5679
78.4935460  63.6535230  62.6954284  -0.4157
78.6447131  62.2590207  61.4010779   0.2719
76.9005333  63.2188725  64.8799627   0.0145
75.4621568  64.6931529  64.8988631   0.0779
75.5965546  60.6999386  64.3602762  -0.0071
76.9009568  59.1308678  64.0786175   0.0256
74.6254122  60.9247339  62.5577416   0.0256
73.4044827  59.8948718  66.0534137  -0.0174
74.1985291  59.5148725  67.9156366   0.0430
72.6618976  58.1016230  65.3637723   0.0430
71.2521174  61.7845915  66.3142662   0.6801
70.5680357  63.1999946  64.6059543  -0.5838
70.2770191  61.9508835  68.6934318  -0.6511
70.7418607  60.4883443  69.6609023   0.4641
78.2781221  63.1735386  67.4046366   0.5973
77.5033275  64.0787166  69.3982972  -0.5679
80.3832792  61.7864658  67.3195825  -0.4157
80.8518468  60.8776789  65.7079397   0.2719
82.1898777  61.6541450  69.3718591  -0.0252
83.8069226  60.5245141  68.7786615   0.0698
81.2886960  60.5754573  70.8775471   0.0698
83.1120368  64.2147769  70.3072553   0.5973
83.3652616  64.6569741  72.5730365  -0.5679
83.5277914  65.9438815  68.5177009  -0.5163
83.0307043  65.5375298  66.7203071   0.2936
84.3780975  68.4080876  69.3547970   0.0381
86.0379352  68.0980536  70.5344565   0.0880
85.1227325  70.1749525  67.2005303  -0.0303
83.3897082  70.5737351  66.1611257  -0.0122
86.3338086  69.0677903  65.9554380  -0.0122
86.5211005  72.5994925  67.8581695   0.7994
85.3154580  74.5534691  68.4137510  -0.8014
88.8700300  72.3802840  67.9621059  -0.8014
82.4506356  69.7006539  71.0536970   0.5366
83.3425811  70.8458287  72.8678331  -0.5819
80.0166791  69.0940841  70.7816079  -0.4157
79.5724320  67.7197528  69.5339340   0.2719
78.1666030  70.1182017  72.5200929  -0.0597
78.7886715  71.9579604  73.2064588   0.0869
75.5928421  70.3659073  71.2407816   0.1303
74.8857556  68.4318044  71.2861516   0.0187
73.8920633  72.0495879  72.8488651  -0.3204
74.0603197  71.8189400  74.8887833   0.0882
74.4230856  74.0376122  72.7563411   0.0882
71.9664397  72.0552513  72.1176113   0.0882
75.3698040  70.9555456  68.4270151  -0.0430
76.4608186  69.6016285  67.3227589   0.0236
76.1878149  72.7935336  67.9849260   0.0236
72.7280333  70.5264908  67.3534546  -0.0660
72.1212562  68.6552120  67.9641333   0.0186
71.4729974  72.0517415  67.9376412   0.0186
72.8866074  70.7171753  65.3086390   0.0186
78.1080410  68.6159514  74.9710980   0.5973
78.3140215  69.8801784  76.9099587  -0.5679
77.5751445  66.1498621  74.9711025  -0.4157
77.5127799  65.2786597  73.2740587   0.2719
76.6491828  64.8401930  77.1914327  -0.0389
76.5167944  66.2377951  78.6987336   0.1007
74.1188321  63.5288074  76.7493301   0.3654
73.1947626  62.8428380  78.4576375   0.0043
72.3991709  65.3806768  75.3621672  -0.2438
70.5077752  64.5965874  75.5871292   0.0642
72.5466390  67.1559128  76.3963725   0.0642
72.7732005  65.5148583  73.3410594   0.0642
74.4589941  61.6428678  74.8973977  -0.6761
72.8280139  60.9114743  74.5874582   0.4102
78.4104023  62.8220498  78.2403213   0.5973
77.9606495  61.8469516  80.3001265  -0.5679
80.6421628  62.3930761  77.1443056  -0.4157
80.7858058  63.2870356  75.4641122   0.2719
82.7700725  61.0684130  78.2459711  -0.0252
82.9268264  61.5313082  80.2469531   0.0698
84.5076745  61.5915777  77.2713865   0.0698
82.4449677  58.2130070  78.3593735   0.5973
83.1384928  57.2322409  80.3454784  -0.5679
81.2865514  57.0697470  76.4318305  -0.3479
80.6404508  58.1994771  75.0357243   0.2747
81.0994668  54.3749921  75.9839429  -0.2637
81.8990684  53.5602657  77.6984769   0.1560
78.4727218  53.1901603  75.8856789  -0.0007
78.4141779  51.2719842  75.1373719   0.0327
77.3412842  54.2989265  74.5691390   0.0327
76.9780091  53.1522785  78.3518494   0.0390
78.1945819  51.8941654  79.4380702   0.0285
75.2812627  52.0356548  78.0098220   0.0285
76.4526277  55.5654738  79.8409302   0.0486
75.4150613  56.7164831  78.4839404   0.0687
78.2330675  56.3952259  80.4608632   0.0687
74.8973842  55.0646606  82.0707985  -0.5295
74.4478566  53.2136743  82.1916889   0.3456
73.7012031  56.6879996  83.6014737   0.8076
73.9847136  59.2031399  83.4899276  -0.8627
75.3662717  59.9214360  82.3862075   0.4478
72.9103331  60.4288677  84.4829755   0.4478
71.9343113  55.8565669  85.2134184  -0.8627
71.7471771  54.0248955  85.7162185   0.4478
71.0972332  57.2793680  86.1714229   0.4478
82.7227562  53.4206641  73.8089196   0.7341
82.9117241  54.6111908  71.8228147  -0.5894
83.6789586  51.0906170  73.9393391  -0.5163
83.4994791  50.2499166  75.6434114   0.2936
85.2266644  49.7772940  72.1024730   0.0381
86.2468803  51.1300217  70.9311170   0.0880
87.2770442  48.1540542  73.3194422  -0.0303
86.7722798  47.3808455  75.1606741  -0.0122
88.6145525  49.6351423  73.8295636  -0.0122
88.6111373  46.3020677  71.5695944   0.7994
90.3874862  46.9521332  70.1560791  -0.8014
88.2766612  44.0060503  72.0117871  -0.8014
83.7375385  48.3165120  70.1220629   0.5366
82.8361406  46.3323038  70.9214167  -0.5819
83.7488743  48.9306735  67.6748649  -0.2548
84.8279584  51.2078986  66.6034670   0.0192
86.8718053  50.9924476  66.4654964   0.0391
84.5597846  52.8543145  67.8118489   0.0391
83.6827161  51.6178952  63.9898915   0.0189
85.1905036  52.5153464  62.9110326   0.0213
81.9275609  52.6569890  64.2770784   0.0213
83.1080810  48.8967203  63.2264417  -0.0070
84.7515909  48.1742747  62.2166199   0.0253
81.5482825  49.1459532  61.9044412   0.0253
82.3013698  47.6834501  65.7152115  -0.0266
80.3338183  47.9858609  66.2444316   0.0641
82.6603917  44.8337480  65.5470363   0.5896
80.8689315  43.4051169  65.1709792  -0.5748
84.9186173  43.8907782  66.1611978  -0.3479
86.2980713  45.1927564  66.3728417   0.2747
85.4174886  41.1997989  66.0628932  -0.2400
84.6070018  40.6878122  64.2397732   0.1426
88.2350668  40.5837361  66.0496562  -0.0094
88.9250326  41.4060227  67.8076588   0.0362
89.2309532  41.6381980  64.5870854   0.0362
88.5808877  37.7302764  65.8077266   0.0187
87.2565624  36.8498897  64.4985802   0.0103
88.2859875  36.9268114  67.6812942   0.0103
91.2568143  37.1539225  64.9026927  -0.0479
91.4929814  35.1110646  64.7854697   0.0621
92.6450810  37.5694586  66.3665295   0.0621
91.8727915  38.1403182  62.2645579  -0.0143
91.5534356  40.1737394  62.1871046   0.1135
90.7184121  37.0936372  60.9174711   0.1135
84.0134347  39.8127486  68.1548584   0.7341
83.0137728  37.8304238  67.4726645  -0.5894
83.6524935  40.8388396  70.4300831  -0.4157
84.3008019  42.6080023  70.7343907   0.2719
82.2484577  39.5651197  72.4067446  -0.0031
82.9246638  37.6215034  72.4955156   0.0850
82.7984029  40.8369068  74.9370998  -0.0036
82.6641312  42.8823486  74.7348137   0.0171
84.7968978  40.4459547  75.2468771   0.0171
81.1750504  40.0357463  77.1801870  -0.0645
81.0484560  37.9835102  77.3030238   0.0352
79.3517546  40.9729040  76.9799014   0.0352
82.2068633  40.9257950  79.7124256   0.6951
84.0946952  42.2731701  79.8560415  -0.6086
80.9105620  40.3249020  81.7911717  -0.9407
79.4247971  39.1453642  81.5813075   0.4251
81.6679655  40.8839843  83.4514780   0.4251
79.4327448  39.6804684  71.8398228   0.5973
78.2195421  37.7964076  72.4464241  -0.5679
78.3782333  41.7005355  70.7570261  -0.4157
79.5996630  43.0788992  70.2559741   0.2719
75.6911152  42.1900580  70.5679771  -0.0875
74.9178435  41.2144957  72.2090451   0.0969
75.2223989  44.9849331  71.1047168   0.2985
73.1838369  45.1455212  70.8572140  -0.0297
75.9575950  45.8105988  73.7692356  -0.3192
75.1803179  47.6431578  74.2987260   0.0791
75.0204688  44.3881402  74.9273365   0.0791
77.9867000  45.7842870  74.1225400   0.0791
76.2276521  46.7121635  69.0260292  -0.3192
75.3584998  46.1187722  67.2553707   0.0791
75.9046739  48.7149026  69.3831183   0.0791
78.2850695  46.6894470  68.9295854   0.0791
74.1982002  41.1922477  68.3211548   0.5973
71.8965150  40.9579189  68.5195752  -0.5679
75.4320739  40.6857847  66.1782239  -0.4157
77.3008883  40.9808607  65.9266482   0.2719
74.0998145  39.6692273  64.0125630  -0.0597
72.5008005  40.9586307  63.8596522   0.0869
75.6193162  40.0565074  61.5918480   0.1303
77.5632771  39.5029804  61.9885716   0.0187
74.8879137  38.5975365  59.2146198  -0.3204
74.6235650  36.5939977  59.6130284   0.0882
73.0473215  39.2174965  58.5285782   0.0882
76.2904672  38.7828911  57.7175372   0.0882
75.5720359  42.8590148  60.9172503  -0.0430
75.9781759  43.8809698  62.6589252   0.0236
73.7731238  43.1688822  59.9629538   0.0236
77.7130656  43.5656959  59.1182210  -0.0660
77.6563779  45.5450607  58.5510515   0.0186
79.4745734  42.9080162  59.9592413   0.0186
77.3558909  42.7511587  57.2603369   0.0186
73.1456216  36.9932759  64.4623338   0.5973
74.3229248  35.1432335  65.2276714  -0.5679
70.6814065  36.7759777  63.9672155  -0.4157
69.7461771  38.2383389  63.1736827   0.2719
69.2944013  34.4856372  64.5455316  -0.0252
70.2507613  32.7712744  63.9217419   0.0698
67.6345050  34.5574474  63.3280037   0.0698
68.2644626  34.1681353  67.2118841   0.5973
67.3158205  32.1253427  67.7806936  -0.5679
68.4231809  36.0937139  68.8351825  -0.3479
69.0716515  37.7555386  68.1564578   0.2747
67.0229071  36.4509066  71.1614225  -0.2400
66.5165297  34.7258186  72.1666262   0.1426
68.7085791  37.7529997  73.1039957  -0.0094
67.7161890  37.6754473  74.9073052   0.0362
68.9975862  39.7025361  72.5051978   0.0362
71.2747573  36.4887052  73.4783001   0.0187
72.0513360  37.2539279  75.2259087   0.0103
72.4715375  37.1126120  71.9222637   0.0103
71.4505332  33.6182172  73.6974050  -0.0479
71.2937162  32.9399047  71.7588282   0.0621
69.7422799  32.9776289  74.6535939   0.0621
73.8164843  32.6053767  74.9995364  -0.0143
73.7654555  30.5606760  75.2432141   0.1135
73.9770093  33.5590785  76.8181825   0.1135
75.9933864  33.4141965  73.4725286  -0.3854
76.1672610  35.3110348  73.3516247   0.3400
77.4813679  32.5784746  74.3271104   0.3400
76.0728176  32.7715560  71.6771037   0.3400
64.6456384  37.9759320  70.6152799   0.7341
64.4188696  38.9944944  68.5403634  -0.5894
62.8749619  38.0193962  72.4124124  -0.4157
63.2169937  37.0103133  73.9959547   0.2719
60.5165890  39.3743270  72.0968502   0.0143
60.2633282  39.7712218  70.0915790   0.1048
58.4000826  37.8286306  73.3043714  -0.2041
58.6382185  38.0364223  75.3397841   0.0797
58.5797197  35.8582857  72.7314394   0.0797
55.8338459  38.8962304  72.5673686   0.7130
55.2555884  41.1090995  72.9698772  -0.5931
54.1558016  37.4015019  71.4184363  -0.9191
54.5225594  35.5467131  71.1575027   0.4196
52.4600058  38.1841157  71.0251955   0.4196
60.8624054  41.9349094  73.3610546   0.5973
61.3801906  42.0785299  75.6192712  -0.5679
59.9591062  43.9172252  72.0873572  -0.4157
59.2543489  43.6753813  70.3301790   0.2719
60.4882271  46.4626918  72.9453135  -0.0024
62.5273883  46.6516777  73.1664233   0.0978
59.6453911  48.1596500  70.7721014  -0.0343
57.6012379  47.9065063  70.7607927   0.0295
60.2934742  47.3755786  68.9810107   0.0295
60.2595841  50.9413422  70.9176367   0.0118
62.6992851  51.8445738  70.4395130  -0.1256
64.1837433  50.5206495  69.9824703   0.1330
63.2680135  54.4259939  70.5264683  -0.1704
65.1560031  54.9702803  69.9746218   0.1430
61.4481870  56.0624032  71.5317846  -0.1072
62.0608662  57.9855174  71.8343397   0.1297
59.0388529  55.1289535  72.1062575  -0.1704
57.5493575  56.2763134  72.9001508   0.1430
58.3792989  52.5872940  71.7887985  -0.1256
56.5293264  51.8578829  72.2479902   0.1330
59.1087370  47.0277212  75.4057350   0.5973
60.1877717  47.5114903  77.4031802  -0.5679
56.6162096  46.6497944  75.4738080  -0.4157
55.8751474  45.9219647  73.8725817   0.2719
54.9626886  46.9862260  77.6318682  -0.0024
55.1931112  48.8937828  78.3741063   0.0978
52.1583519  47.0334702  76.9609875  -0.0343
51.2267674  48.2824011  78.3082456   0.0295
51.3453736  45.1409166  76.9704309   0.0295
51.9731326  48.1899041  74.3588288   0.0118
52.0317215  50.8336842  74.2474043  -0.1256
52.1299315  52.0140872  75.9094227   0.1330
51.6821205  51.8843570  71.8454862  -0.1704
51.9201619  53.8944941  71.5847733   0.1430
51.5743950  50.4028093  69.6571087  -0.1072
51.4572982  51.2036094  67.7835321   0.1297
51.5026006  47.7627552  69.8025899  -0.1704
51.6630985  46.7223638  68.0541299   0.1430
51.5970845  46.6855407  72.2158979  -0.1256
51.6574982  44.6596706  72.4556738   0.1330
55.3897564  45.0680769  79.7313214   0.5973
55.3803085  45.9127826  81.8931663  -0.5679
55.7601411  42.6397567  79.1510996  -0.3479
55.6487076  42.0146064  77.3512052   0.2747
55.5844372  40.6404328  81.0125115  -0.2400
54.3443280  41.1791999  82.5664259   0.1426
54.8209739  38.1403812  79.7954972  -0.0094
54.8738860  36.6562992  81.2228983   0.0362
56.0508918  37.7360254  78.1934375   0.0362
52.1413528  38.2310266  78.7335247   0.0187
51.9617698  40.0870454  77.8584657   0.0103
50.6443153  38.0760523  80.1398133   0.0103
51.8634021  35.9086162  77.0461046  -0.0479
51.7520272  34.2436107  78.2536394   0.0621
53.4126939  35.4924381  75.7541015   0.0621
49.4768206  36.1126549  75.4416345  -0.0143
49.3482979  37.8796369  74.3909031   0.1135
47.8420422  36.3073245  76.6795316   0.1135
49.1764372  33.7788322  73.9620376  -0.3854
50.6763221  33.2593372  72.9021737   0.3400
58.1317510  40.3739935  82.3240232   0.7341
58.1071828  39.2855154  84.3743760  -0.5894
60.2009952  41.5135184  81.4377186  -0.5163
60.0574197  42.5526077  79.8431920   0.2936
62.7559052  41.0807377  82.3221940   0.0381
62.6161188  40.6349361  84.3283122   0.0880
63.8292854  38.7148316  81.0711545  -0.0303
63.7895878  38.9056963  79.0205945  -0.0122
62.7293410  36.9987681  81.3678479  -0.0122
66.4918984  38.2102609  82.0367823   0.7994
66.6544148  37.9116842  84.3743760  -0.8014
68.2644626  37.5450751  80.6232669  -0.8014
64.6569741  43.2350403  82.1728471   0.5366
65.6528605  44.0022703  84.1249358  -0.5819