%chk=input
%mem=50000000
%nprocshared=4
%subst l701 /home/tgraen/Software/g03/devel/l701
%subst l301 /home/tgraen/Software/g03/devel/l301
%subst l9999 /home/tgraen/Software/g03/devel/l9999
#P  B3LYP/6-31G* Charge 
Nosymm 
FORCE Punch=(Derivatives) Pop=(MK,ESPDipole)iop(3/33=1)

input-file generated by gromacs

-1 1
  6  31.5870000  31.9380000  46.5700000
 16  32.5990000  32.7120000  45.1010000
  6  33.6680000  31.4200000  44.3940000
  8  33.7000000  30.3280000  44.9920000
  6  34.2860000  31.6950000  43.1530000
  6  35.2430000  30.8180000  42.7370000
  6  35.8910000  30.8190000  41.5000000
  6  35.6850000  31.8540000  40.5830000
  6  36.2190000  31.6910000  39.3350000
  6  36.9820000  30.5310000  38.8330000
  6  37.2240000  29.5560000  39.8550000
  6  36.7080000  29.7510000  41.1000000
  1  36.6140000  28.8890000  41.8520000
  1  37.9230000  28.7350000  39.6420000
  8  37.4270000  30.4310000  37.6910000
  1  36.1300000  32.3970000  38.5060000
  1  35.1850000  32.7830000  40.8460000
  1  35.4840000  30.0170000  43.4390000
  1  34.0070000  32.5600000  42.5340000
  1  31.2860000  32.9090000  46.9490000
  1  32.3970000  31.5000000  47.3600000
  6  33.3130000  28.4570000  41.4180000
  1  33.5240000  29.5050000  41.6300000
  1  34.0170000  28.1430000  40.6470000
  1  32.3150000  28.3180000  41.0020000
  1  33.5170558  27.9212633  42.3568010
  1  30.6086333  32.0495681  46.0797439

52.0870000  27.7460000  37.1280000  -0.8340
52.4920000  26.9240000  36.7410000  0.4170
52.8290000  28.3900000  37.2640000  0.4170
40.4080000  26.2680000  44.4860000  -0.8340
27.7670000  37.0220000  57.9800000  -0.8340
27.6910000  37.5710000  58.8030000  0.4170
26.9720000  36.4290000  57.9540000  0.4170
32.9980000  41.5460000  26.5750000  -0.0024
33.3290000  40.5070000  26.5940000  0.0978
33.2650000  42.1950000  27.9300000  -0.0343
32.7820000  43.1720000  27.9310000  0.0295
34.3380000  42.2900000  28.0950000  0.0295
32.7950000  41.3260000  29.0720000  0.0118
31.4910000  41.2960000  29.5820000  -0.1256
30.7800000  41.9380000  29.0850000  0.1330
31.0650000  40.3730000  30.5460000  -0.1704
30.0830000  40.5480000  30.9590000  0.1430
32.0570000  39.5350000  31.0670000  -0.1072
31.7030000  38.8790000  31.8490000  0.1297
33.3990000  39.5870000  30.6710000  -0.1704
34.2240000  39.0560000  31.1230000  0.1430
33.7240000  40.4170000  29.5920000  -0.1256
34.7120000  40.3180000  29.1660000  0.1330
31.5080000  41.6140000  26.2720000  0.5973
30.9230000  40.4140000  26.2770000  -0.4157
31.4840000  39.6290000  26.5770000  0.2719
29.5030000  39.0550000  25.8120000  0.0698
30.8220000  17.9930000  44.1060000  -0.8340
29.9170000  17.7020000  44.3780000  0.4170
30.9470000  18.8920000  44.4910000  0.4170
33.0890000  17.8320000  53.5890000  -0.8340
48.7050000  42.3090000  37.2420000  -0.8340
33.2450000  16.6980000  43.7330000  -0.8340
49.4570000  42.1040000  37.8330000  0.4170
22.4830000  22.0080000  52.6560000  -0.8340
23.1120000  22.4740000  53.2760000  0.4170
22.7640000  22.2190000  51.7290000  0.4170
32.4200000  17.2440000  43.7290000  0.4170
28.6090000  22.8870000  56.5670000  0.4170
27.9120000  21.9670000  55.4720000  0.4170
33.3110000  16.3240000  44.6450000  0.4170
48.7550000  17.9640000  42.1500000  -0.8340
49.7160000  18.1020000  42.3610000  0.4170
48.7160000  17.3740000  41.3570000  0.4170
33.6470000  18.3790000  54.2010000  0.4170
27.6340000  43.5260000  49.2960000  -0.8340
26.7900000  43.9400000  49.0260000  0.4170
28.1190000  44.1960000  49.8430000  0.4170
31.8110000  35.0040000  23.9110000  0.0236
32.2220000  36.9210000  24.6600000  -0.0660
33.0360000  36.5180000  25.2630000  0.0186
32.4540000  37.9370000  24.3420000  0.0186
31.3180000  37.0000000  25.2640000  0.0186
25.9250000  41.3440000  49.9960000  -0.8340
26.1120000  40.6230000  50.6530000  0.4170
39.1920000  28.0860000  53.8070000  -0.8340
39.5260000  28.9830000  53.5440000  0.4170
39.6410000  27.8300000  54.6400000  0.4170
46.9920000  18.5240000  44.2370000  -0.8340
47.5940000  18.2330000  43.5080000  0.4170
47.5640000  18.7140000  45.0240000  0.4170
23.1060000  24.4690000  48.5410000  -0.8340
23.5650000  24.7560000  47.7130000  0.4170
23.0900000  25.2610000  49.1260000  0.4170
35.4590000  17.2880000  42.1900000  -0.8340
42.3080000  37.6520000  53.1790000  -0.8340
42.1170000  36.7860000  53.6260000  0.4170
41.5390000  38.2320000  53.3360000  0.4170
35.1680000  30.8740000  22.2660000  0.0457
34.8980000  33.4740000  23.2770000  -0.4121
35.0850000  32.6920000  24.0130000  0.1000
35.4420000  34.3830000  23.5330000  0.1000
33.8490000  33.7340000  23.4180000  0.1000
46.5470000  40.8840000  37.9700000  -0.8340
37.2570000  32.7190000  22.1620000  0.1000
46.0970000  40.2780000  37.3220000  0.4170
26.9180000  39.4770000  46.9300000  -0.8340
27.4790000  38.7610000  47.3280000  0.4170
27.3940000  40.3260000  47.1310000  0.4170
45.1580000  39.5850000  40.0630000  -0.8340
44.8710000  38.8240000  39.4940000  0.4170
17.7300000  26.7730000  45.1620000  -0.8340
16.8900000  26.3550000  45.5010000  0.4170
18.1580000  27.2170000  45.9330000  0.4170
29.3590000  32.9320000  48.3950000  0.4170
46.0640000  39.3910000  40.4070000  0.4170
28.8420000  21.9510000  46.3730000  -0.8340
28.2480000  22.4580000  45.7620000  0.4170
29.4250000  21.3770000  45.8210000  0.4170
39.3710000  28.3330000  22.1290000  0.0241
37.6690000  28.7760000  21.9030000  0.0241
29.5200000  44.2430000  45.5940000  0.4170
28.6770000  43.6210000  44.4020000  0.4170
37.5400000  25.8350000  22.6950000  -0.5679
39.1690000  24.2050000  23.6300000  0.0880
40.8300000  25.3760000  23.9510000  0.5366
41.1540000  26.5080000  23.6000000  -0.5819
41.2180000  24.8940000  25.1340000  -0.5163
40.8570000  24.0140000  25.4740000  0.2936
41.9280000  25.6390000  26.1540000  0.0381
41.2900000  26.4370000  26.5360000  0.0880
42.1520000  24.7430000  27.3680000  -0.0303
41.2660000  24.1160000  27.4630000  -0.0122
42.0860000  25.4130000  28.2260000  -0.0122
43.4550000  23.9610000  27.4510000  0.7994
43.7470000  22.9830000  26.7300000  -0.8014
44.3490000  24.2910000  28.2600000  -0.8014
43.2290000  26.3120000  25.7390000  0.5366
43.5280000  27.3570000  26.3140000  -0.5819
43.9120000  25.8470000  24.6910000  -0.4157
43.4830000  25.0870000  24.1830000  0.2719
29.8130000  19.6460000  56.5860000  0.4170
29.9440000  20.9780000  55.7520000  0.4170
45.8140000  26.7270000  24.9900000  0.0698
24.2630000  23.0370000  54.4490000  -0.8340
41.3660000  26.3890000  44.2440000  0.4170
40.2570000  26.7270000  45.3580000  0.4170
42.5460000  29.5740000  22.5860000  0.5973
41.9830000  29.2440000  23.7510000  -0.4157
41.9020000  28.2640000  23.9780000  0.2719
41.1470000  30.1170000  24.5500000  -0.0518
40.3990000  30.6750000  23.9850000  0.0922
40.4480000  29.1590000  25.5100000  -0.1102
41.1730000  28.9350000  26.2930000  0.0457
40.1960000  28.2400000  24.9800000  0.0457
39.0830000  29.6060000  26.0230000  0.3531
39.2160000  30.5300000  26.5860000  -0.0361
38.0020000  29.7330000  24.9530000  -0.4121
38.2390000  30.5070000  24.2230000  0.1000
37.6540000  28.8440000  24.4270000  0.1000
37.0950000  30.0640000  25.4590000  0.1000
38.4710000  28.6710000  27.0620000  -0.4121
37.6260000  29.2170000  27.4810000  0.1000
38.2070000  27.6730000  26.7100000  0.1000
39.1550000  28.5410000  27.9010000  0.1000
41.9960000  31.1410000  25.2910000  0.5973
41.3480000  31.9260000  25.9800000  -0.5679
43.3240000  31.0720000  25.1720000  -0.5163
43.5170000  30.1230000  24.8830000  0.2936
44.2740000  31.9520000  25.8210000  0.0381
43.9120000  32.0310000  26.8460000  0.0880
45.5660000  31.1430000  25.8870000  -0.0303
45.9530000  30.9680000  24.8830000  -0.0122
45.4010000  30.1440000  26.2900000  -0.0122
46.5930000  31.7660000  26.8220000  0.7994
47.7030000  31.9090000  26.2670000  -0.8014
46.4820000  32.1050000  28.0200000  -0.8014
44.4280000  33.3300000  25.1930000  0.5366
44.7270000  34.2990000  25.8880000  -0.5819
44.0880000  33.3990000  23.9040000  -0.4157
43.7620000  32.5550000  23.4550000  0.2719
34.6460000  40.0060000  56.8510000  -0.8340
34.3970000  39.0650000  56.9710000  0.4170
33.9400000  40.4350000  56.3030000  0.4170
42.2590000  35.4060000  24.3510000  -0.4157
42.4840000  34.5720000  24.8740000  0.2719
41.2510000  36.3030000  24.8800000  -0.0518
40.8860000  36.9890000  24.1150000  0.0922
40.0250000  35.5380000  25.3700000  -0.1102
39.3790000  36.2060000  25.9390000  0.0457
40.4730000  34.7690000  26.0000000  0.0457
39.2660000  34.8850000  24.2190000  0.3531
39.9580000  34.3220000  23.5930000  -0.0361
38.2710000  33.9760000  24.9350000  -0.4121
37.6120000  34.5480000  25.5880000  0.1000
37.5750000  33.5390000  24.2190000  0.1000
38.7970000  33.1660000  25.4410000  0.1000
38.5390000  35.9420000  23.3930000  -0.4121
37.8280000  36.4400000  24.0530000  0.1000
41.8010000  37.2040000  25.9770000  0.5973
42.7050000  36.8260000  26.7190000  -0.5679
41.1960000  38.3920000  26.0420000  -0.4157
40.4490000  38.5470000  25.3800000  0.2719
41.5780000  39.4480000  26.9580000  0.0337
42.6120000  39.3650000  27.2910000  0.0823
41.5950000  40.7350000  26.1370000  -0.1825
43.7110000  25.6560000  53.8970000  0.4170
40.7120000  39.4150000  28.2090000  0.5973
40.5270000  40.4670000  28.8180000  -0.5679
40.0790000  38.2900000  28.5470000  -0.4157
40.3130000  37.4710000  28.0040000  0.2719
39.2660000  38.1770000  29.7410000  -0.0024
39.8300000  38.6220000  30.5610000  0.0978
37.9390000  38.8960000  29.5150000  -0.0343
38.2400000  39.9360000  29.3890000  0.0295
37.3290000  38.8320000  30.4160000  0.0295
37.1250000  38.4990000  28.3070000  0.0118
36.5070000  37.2440000  28.2460000  -0.1256
36.4250000  36.6680000  29.1560000  0.1330
35.7460000  36.9060000  27.1210000  -0.1704
35.1960000  35.9770000  27.1040000  0.1430
35.6720000  37.8080000  26.0520000  -0.1072
35.1190000  37.6480000  25.1380000  0.1297
36.2070000  39.1010000  26.0920000  -0.1704
36.2900000  39.7890000  25.2630000  0.1430
36.9420000  39.3950000  27.2470000  -0.1256
37.3770000  40.3820000  27.2990000  0.1330
39.0370000  36.7170000  30.1050000  0.5973
39.3430000  35.7720000  29.3810000  -0.5679
38.5580000  36.4780000  31.3280000  -0.4157
38.3200000  37.2450000  31.9400000  0.2719
38.4570000  35.1450000  31.8880000  -0.0252
38.3440000  35.2170000  32.9700000  0.0698
39.3500000  34.5830000  31.6150000  0.0698
37.3150000  34.4140000  31.1980000  0.5973
36.2250000  34.9650000  31.0620000  -0.5679
37.6380000  33.1900000  30.7730000  -0.4157
38.5470000  32.8340000  31.0320000  0.2719
36.7290000  32.5110000  29.8710000  0.0337
35.6940000  32.8440000  29.7970000  0.0823
37.1990000  32.8090000  28.4500000  -0.1825
37.4080000  33.8710000  28.3170000  0.0603
38.1020000  32.2420000  28.2240000  0.0603
36.3740000  32.4860000  27.8150000  0.0603
36.6970000  31.0150000  30.1510000  0.5973
37.6910000  30.2950000  30.2120000  -0.5679
35.4770000  30.5130000  30.3590000  -0.4157
34.6570000  31.0840000  30.2120000  0.2719
35.1940000  29.1270000  30.6720000  -0.0597
36.0810000  28.5190000  30.4940000  0.0869
34.7850000  29.0930000  32.1420000  0.1303
33.8770000  29.6900000  32.2140000  0.0187
34.4860000  27.6590000  32.5690000  -0.3204
33.7260000  27.2470000  31.9050000  0.0882
35.4170000  27.0920000  32.5510000  0.0882
34.0170000  27.6100000  33.5520000  0.0882
35.8150000  29.7350000  33.0670000  -0.0430
36.1460000  30.6530000  32.5840000  0.0236
36.5740000  28.9630000  33.1930000  0.0236
35.1600000  30.1130000  34.3930000  -0.0660
34.6810000  31.0920000  34.3890000  0.0186
34.5450000  29.3220000  34.8230000  0.0186
35.9260000  30.2420000  35.1580000  0.0186
34.1130000  28.6090000  29.7340000  0.5973
33.2600000  29.4170000  29.3760000  -0.5679
34.0840000  27.3180000  29.3940000  -0.4157
34.8160000  26.7330000  29.7700000  0.2719
33.0100000  26.6280000  28.7090000  -0.0031
32.2120000  27.3160000  28.4290000  0.0850
33.4420000  26.0740000  27.3550000  -0.0036
34.1790000  25.2980000  27.5650000  0.0171
33.9980000  26.8100000  26.7740000  0.0171
32.3040000  25.6650000  26.4240000  -0.0645
31.8030000  26.5470000  26.0250000  0.0352
31.5370000  25.1640000  27.0140000  0.0352
32.9030000  24.7970000  25.3270000  0.6951
33.1460000  23.5920000  25.3700000  -0.6086
33.4080000  25.4030000  24.2510000  -0.9407
33.3410000  26.4080000  24.1740000  0.4251
33.8570000  24.8630000  23.5250000  0.4251
32.5050000  25.5540000  29.6630000  0.5973
33.2860000  24.7960000  30.2330000  -0.5679
31.1830000  25.3840000  29.7310000  -0.4157
30.6150000  25.9710000  29.1360000  0.2719
30.4670000  24.4990000  30.6280000  -0.0518
31.0830000  23.8850000  31.2840000  0.0922
29.7700000  25.4110000  31.6340000  -0.1102
29.1930000  24.7930000  32.3220000  0.0457
29.0770000  26.0530000  31.0910000  0.0457
30.6000000  26.3400000  32.5150000  0.3531
31.0670000  27.1420000  31.9420000  -0.0361
29.6230000  27.0120000  33.4750000  -0.4121
30.1440000  27.6980000  34.1430000  0.1000
28.9420000  27.6540000  32.9170000  0.1000
29.0750000  26.2510000  34.0310000  0.1000
31.7350000  25.6550000  33.2710000  -0.4121
31.3160000  24.8400000  33.8620000  0.1000
32.4140000  25.2110000  32.5430000  0.1000
32.3380000  26.2730000  33.9360000  0.1000
29.4630000  23.6470000  29.8630000  0.5973
28.9320000  24.0470000  28.8300000  -0.5679
29.1420000  22.5290000  30.5190000  -0.5163
29.5050000  22.4090000  31.4540000  0.2936
28.1020000  21.5910000  30.1480000  0.0381
27.7110000  21.8160000  29.1560000  0.0880
28.5160000  20.1290000  30.2840000  -0.0303
28.7230000  19.9220000  31.3340000  -0.0122
29.4790000  19.9810000  29.7950000  -0.0122
25.2520000  34.6140000  46.1260000  -0.8340
25.2450000  35.5490000  46.4570000  0.4170
26.0370000  34.5280000  45.5390000  0.4170
27.0360000  21.9060000  31.1870000  0.5366
27.3780000  22.2320000  32.3210000  -0.5819
49.9170000  24.5410000  32.5680000  0.4170
43.6310000  29.2370000  56.5080000  -0.8340
42.0180000  23.7360000  50.4130000  -0.8340
41.9530000  24.6190000  50.8290000  0.4170
26.2510000  20.3000000  35.3930000  0.5366
26.1720000  20.2170000  36.6160000  -0.5819
27.0960000  21.1500000  34.8040000  -0.4157
27.0700000  21.1770000  33.7940000  0.2719
28.0590000  22.0230000  35.4430000  -0.0252
27.7340000  22.2250000  36.4640000  0.0698
27.9710000  22.9290000  34.8430000  0.0698
29.5200000  21.6430000  35.2520000  0.5973
30.4190000  22.2880000  35.7860000  -0.5679
29.7840000  20.7000000  34.3450000  -0.4157
28.9550000  20.2760000  33.9550000  0.2719
31.1020000  20.1700000  34.0580000  0.0143
31.6550000  20.1410000  34.9960000  0.1048
31.1110000  18.8050000  33.3750000  -0.2041
30.5490000  18.9340000  32.4490000  0.0797
30.6640000  18.0090000  33.9700000  0.0797
32.5160000  18.2820000  33.1160000  0.7130
33.4160000  18.5300000  33.9140000  -0.5931
32.7240000  17.6200000  31.9750000  -0.9191
32.0590000  17.3250000  31.2740000  0.4196
33.7060000  17.4170000  31.8550000  0.4196
31.9100000  21.1610000  33.2320000  0.5973
31.4600000  21.5960000  32.1740000  -0.5679
33.1070000  21.5290000  33.6950000  -0.4157
33.4490000  21.1400000  34.5620000  0.2719
33.9910000  22.4530000  33.0130000  -0.0597
33.4150000  23.2190000  32.4940000  0.0869
35.0260000  23.1260000  33.9110000  0.1303
35.6860000  22.3350000  34.2660000  0.0187
35.9200000  23.9350000  32.9760000  -0.3204
36.6270000  23.2980000  32.4450000  0.0882
35.4430000  24.5870000  32.2440000  0.0882
36.4890000  24.5790000  33.6470000  0.0882
34.5180000  23.8820000  35.1350000  -0.0430
33.6380000  23.4040000  35.5660000  0.0236
34.1690000  24.8390000  34.7480000  0.0236
35.5160000  24.1230000  36.2640000  -0.0660
35.8180000  23.1620000  36.6790000  0.0186
36.4520000  24.5580000  35.9120000  0.0186
35.1810000  24.8190000  37.0330000  0.0186
34.7230000  21.6910000  31.9170000  0.5973
35.5740000  20.8480000  32.1920000  -0.5679
34.4280000  22.0610000  30.6690000  -0.4157
33.6410000  22.6800000  30.5340000  0.2719
34.9280000  21.5470000  29.4100000  -0.0518
35.1660000  20.4830000  29.4390000  0.0922
33.7790000  21.7600000  28.4290000  -0.1102
34.0920000  21.6690000  27.3880000  0.0457
33.3620000  22.7560000  28.5810000  0.0457
32.5840000  20.8360000  28.6470000  0.3531
32.3130000  20.9650000  29.6950000  -0.0361
31.3870000  21.2510000  27.7970000  -0.4121
30.9440000  22.0710000  28.3630000  0.1000
31.6890000  21.6250000  26.8190000  0.1000
30.6310000  20.4760000  27.6720000  0.1000
32.9580000  19.4020000  28.2830000  -0.4121
33.8240000  18.9740000  28.7870000  0.1000
32.1330000  18.8490000  28.7330000  0.1000
33.0740000  19.2310000  27.2130000  0.1000
36.1850000  22.1930000  28.8450000  0.5973
37.0850000  21.5300000  28.3350000  -0.5679
36.3180000  23.5150000  28.9810000  -0.4157
35.5960000  24.0670000  29.4210000  0.2719
37.4850000  24.3440000  28.7550000  -0.0031
38.3720000  23.7320000  28.9180000  0.0850
37.3500000  24.8340000  27.3160000  -0.0036
38.2410000  25.3730000  26.9940000  0.0171
36.5530000  25.5760000  27.2580000  0.0171
36.9350000  23.8060000  26.2680000  -0.0645
36.7730000  24.4620000  25.4120000  0.0352
35.9930000  23.2840000  26.4360000  0.0352
38.0490000  22.8220000  25.9430000  0.6951
39.1940000  22.9160000  26.3800000  -0.6086
37.9140000  21.7810000  25.1190000  -0.9407
36.9750000  21.4100000  25.1240000  0.4251
38.6490000  21.1530000  24.8240000  0.4251
37.5790000  25.5380000  29.6940000  0.5973
36.5650000  26.1550000  30.0130000  -0.5679
38.7890000  25.9670000  30.0630000  -0.4157
39.5920000  25.6140000  29.5620000  0.2719
39.0930000  27.0340000  30.9940000  -0.0014
38.3430000  27.8250000  30.9610000  0.0876
39.1640000  26.3090000  32.3340000  -0.0152
40.0000000  25.6120000  32.4020000  0.0295
38.1840000  25.8440000  32.4350000  0.0295
39.2710000  27.1910000  33.5550000  -0.0011
40.5140000  27.7010000  33.9460000  -0.1906
41.2710000  27.6740000  33.1760000  0.1699
40.6620000  28.4020000  35.1490000  -0.2341
41.6490000  28.6730000  35.4960000  0.1656
39.5710000  28.4750000  36.0370000  0.3226
39.8050000  29.0480000  37.2520000  -0.5579
38.9990000  29.4230000  37.6150000  0.3992
38.3080000  27.9780000  35.6560000  -0.2341
37.4830000  28.0150000  36.3510000  0.1656
38.1700000  27.3730000  34.4010000  -0.1906
37.2180000  26.8850000  34.2490000  0.1699
40.3630000  27.7280000  30.5230000  0.5973
41.3150000  27.0240000  30.1930000  -0.5679
40.3580000  29.0560000  30.3810000  -0.4157
39.5270000  29.5390000  30.6930000  0.2719
41.5470000  29.7890000  29.9960000  0.0143
42.1620000  29.1040000  29.4120000  0.1048
41.2380000  30.8040000  28.8990000  -0.2041
40.4510000  30.5260000  28.1990000  0.0797
42.1720000  30.9350000  28.3530000  0.0797
40.8250000  32.1580000  29.4580000  0.7130
40.5010000  32.3510000  30.6280000  -0.5931
40.8280000  33.1650000  28.5810000  -0.9191
40.9810000  32.9190000  27.6140000  0.4196
40.4980000  34.0960000  28.7920000  0.4196
42.4010000  30.2160000  31.1810000  0.5973
42.0250000  29.9590000  32.3230000  -0.5679
43.6690000  30.5720000  30.9650000  -0.4157
44.0000000  30.4180000  30.0230000  0.2719
44.6550000  30.9810000  31.9450000  0.0337
44.4950000  30.3820000  32.8420000  0.0823
46.0090000  30.6260000  31.3360000  -0.1825
46.0710000  31.1010000  30.3570000  0.0603
46.8920000  30.8400000  31.9380000  0.0603
46.0190000  29.5450000  31.1930000  0.0603
44.4390000  32.3820000  32.4980000  0.5973
44.6830000  32.5720000  33.6870000  -0.5679
43.8320000  33.3290000  31.7790000  -0.4157
43.9120000  33.1520000  30.7870000  0.2719
43.5840000  34.6790000  32.2410000  0.0337
44.3740000  34.8890000  32.9620000  0.0823
43.7400000  35.6200000  31.0500000  -0.1825
44.6990000  35.5680000  30.5340000  0.0603
42.9920000  35.4430000  30.2770000  0.0603
43.6070000  36.6910000  31.1990000  0.0603
42.3140000  34.7640000  33.0770000  0.5973
42.0970000  35.7080000  33.8340000  -0.5679
41.5370000  33.6840000  33.1770000  -0.4157
41.6170000  32.9460000  32.4920000  0.2719
40.6940000  33.4540000  34.3330000  0.0145
39.9330000  34.2340000  34.3430000  0.0779
40.0040000  32.1210000  34.0580000  -0.0071
40.6940000  31.2910000  33.9090000  0.0256
39.4900000  32.2400000  33.1040000  0.0256
38.8440000  31.6950000  34.9540000  -0.0174
39.2640000  31.4940000  35.9390000  0.0430
38.4510000  30.7460000  34.5890000  0.0430
37.7050000  32.6950000  35.0920000  0.6801
37.3430000  33.4440000  34.1880000  -0.5838
37.1890000  32.7830000  36.3510000  -0.6511
37.4350000  32.0090000  36.8630000  0.4641
41.4230000  33.4300000  35.6690000  0.5973
41.0130000  33.9090000  36.7240000  -0.5679
42.5370000  32.6960000  35.6240000  -0.4157
42.7850000  32.2150000  34.7710000  0.2719
43.4930000  32.6260000  36.7100000  -0.0252
44.3490000  32.0280000  36.3960000  0.0698
43.0160000  32.0550000  37.5070000  0.0698
43.9810000  33.9810000  37.2050000  0.5973
44.1150000  34.2150000  38.4040000  -0.5679
44.2010000  34.8960000  36.2580000  -0.5163
43.9380000  34.6810000  35.3070000  0.2936
44.6510000  36.2000000  36.7010000  0.0381
45.5290000  36.0360000  37.3250000  0.0880
45.0450000  37.1350000  35.5610000  -0.0303
44.1280000  37.3460000  35.0110000  -0.0122
45.6860000  36.5490000  34.9020000  -0.0122
45.7850000  38.4180000  35.9090000  0.7994
45.1470000  39.4520000  36.2030000  -0.8014
47.0280000  38.3020000  35.9640000  -0.8014
43.6310000  36.8840000  37.6000000  0.5366
44.1030000  37.4900000  38.5600000  -0.5819
42.3430000  36.5630000  37.4560000  -0.4157
42.1080000  35.8360000  36.7960000  0.2719
41.3640000  37.1050000  38.3760000  -0.0597
41.6930000  38.0780000  38.7390000  0.0869
40.0020000  37.2360000  37.6990000  0.1303
39.6280000  36.2130000  37.7230000  0.0187
39.1020000  38.1270000  38.5500000  -0.3204
39.1910000  38.0050000  39.6290000  0.0882
39.3830000  39.1790000  38.5010000  0.0882
38.0830000  38.1300000  38.1630000  0.0882
39.8840000  37.5480000  36.2100000  -0.0430
40.4610000  36.8320000  35.6260000  0.0236
40.3170000  38.5210000  35.9760000  0.0236
38.4860000  37.3210000  35.6420000  -0.0660
38.1650000  36.3310000  35.9650000  0.0186
37.8220000  38.1280000  35.9510000  0.0186
38.5700000  37.4220000  34.5590000  0.0186
41.3330000  36.3100000  39.6730000  0.5973
41.4420000  36.9790000  40.6990000  -0.5679
41.0510000  35.0050000  39.6730000  -0.4157
41.0180000  34.5440000  38.7750000  0.2719
40.5610000  34.3120000  40.8480000  -0.0389
40.4910000  35.0510000  41.6450000  0.1007
39.2220000  33.6180000  40.6140000  0.3654
38.7330000  33.2550000  41.5180000  0.0043
38.3120000  34.5980000  39.8800000  -0.2438
37.3110000  34.1830000  39.9990000  0.0642
38.3900000  35.5370000  40.4270000  0.0642
38.5100000  34.6690000  38.8100000  0.0642
39.4020000  32.6200000  39.6340000  -0.6761
38.5390000  32.2330000  39.4700000  0.4102
41.4930000  33.2440000  41.4030000  0.5973
41.2550000  32.7280000  42.4930000  -0.5679
42.6740000  33.0170000  40.8230000  -0.4157
42.7500000  33.4900000  39.9340000  0.2719
43.8000000  32.3160000  41.4060000  -0.0252
43.8830000  32.5610000  42.4650000  0.0698
44.7200000  32.5930000  40.8900000  0.0698
43.6280000  30.8050000  41.4660000  0.5973
43.9950000  30.2860000  42.5170000  -0.5679
43.0150000  30.2000000  40.4460000  -0.3479
42.6730000  30.7980000  39.7070000  0.2747
42.9160000  28.7740000  40.2090000  -0.2637
43.3390000  28.3430000  41.1160000  0.1560
41.5260000  28.1470000  40.1570000  -0.0007
41.4950000  27.1320000  39.7610000  0.0327
40.9270000  28.7340000  39.4600000  0.0327
40.7350000  28.1270000  41.4620000  0.0390
41.3790000  27.4610000  42.0370000  0.0285
39.8370000  27.5360000  41.2810000  0.0285
40.4570000  29.4040000  42.2500000  0.0486
39.9080000  30.0130000  41.5320000  0.0687
41.3990000  29.8430000  42.5780000  0.0687
39.6340000  29.1390000  43.4300000  -0.5295
39.3960000  28.1590000  43.4940000  0.3456
39.0010000  29.9980000  44.2400000  0.8076
39.1510000  31.3290000  44.1810000  -0.8627
39.8820000  31.7090000  43.5970000  0.4478
38.5830000  31.9770000  44.7060000  0.4478
38.0660000  29.5580000  45.0930000  -0.8627
37.9670000  28.5890000  45.3590000  0.4478
37.6230000  30.3110000  45.6000000  0.4478
43.7750000  28.2690000  39.0580000  0.7341
43.8750000  28.8990000  38.0070000  -0.5894
44.2810000  27.0360000  39.1270000  -0.5163
44.1860000  26.5910000  40.0290000  0.2936
45.1000000  26.3410000  38.1550000  0.0381
45.6400000  27.0570000  37.5350000  0.0880
46.1850000  25.4820000  38.7990000  -0.0303
45.9180000  25.0730000  39.7730000  -0.0122
46.8930000  26.2660000  39.0690000  -0.0122
46.8910000  24.5020000  37.8730000  0.7994
47.8310000  24.8460000  37.1250000  -0.8014
46.7140000  23.2870000  38.1070000  -0.8014
44.3120000  25.5680000  37.1070000  0.5366
43.8350000  24.5180000  37.5300000  -0.5819
44.3180000  25.8930000  35.8120000  -0.2548
44.8890000  27.0980000  35.2450000  0.0192
45.9710000  26.9840000  35.1720000  0.0391
44.7470000  27.9700000  35.8850000  0.0391
44.2830000  27.3150000  33.8620000  0.0189
45.0810000  27.7900000  33.2910000  0.0213
43.3540000  27.8650000  34.0140000  0.0213
43.9790000  25.8750000  33.4580000  -0.0070
44.8480000  25.4930000  32.9240000  0.0253
43.1530000  26.0070000  32.7580000  0.0253
43.5520000  25.2330000  34.7750000  -0.0266
42.5110000  25.3930000  35.0550000  0.0641
43.7420000  23.7250000  34.6860000  0.5896
42.7940000  22.9690000  34.4870000  -0.5748
44.9370000  23.2260000  35.0110000  -0.3479
45.6670000  23.9150000  35.1230000  0.2747
45.2010000  21.8020000  34.9590000  -0.2400
44.7720000  21.5310000  33.9940000  0.1426
46.6920000  21.4760000  34.9520000  -0.0094
47.0570000  21.9110000  35.8820000  0.0362
47.2190000  22.0340000  34.1780000  0.0362
46.8750000  19.9660000  34.8240000  0.0187
46.1740000  19.5000000  34.1310000  0.0103
46.7190000  19.5410000  35.8150000  0.0103
48.2910000  19.6610000  34.3450000  -0.0479
48.4160000  18.5800000  34.2830000  0.0621
49.0260000  19.8810000  35.1200000  0.0621
48.6170000  20.1830000  32.9490000  -0.0143
48.4480000  21.2590000  32.9080000  0.1135
48.0060000  19.6290000  32.2360000  0.1135
44.4580000  21.0680000  36.0660000  0.7341
43.9290000  20.0190000  35.7050000  -0.5894
44.2670000  21.6110000  37.2700000  -0.4157
44.6100000  22.5470000  37.4310000  0.2719
43.5240000  20.9370000  38.3160000  -0.0031
43.8820000  19.9080000  38.3630000  0.0850
43.8150000  21.6100000  39.6550000  -0.0036
43.7440000  22.6920000  39.5480000  0.0171
44.8730000  21.4030000  39.8190000  0.0171
42.9560000  21.1860000  40.8420000  -0.0645
42.8890000  20.1000000  40.9070000  0.0352
41.9910000  21.6820000  40.7360000  0.0352
43.5020000  21.6570000  42.1820000  0.6951
44.5010000  22.3700000  42.2580000  -0.6086
42.8160000  21.3390000  43.2820000  -0.9407
42.0300000  20.7150000  43.1710000  0.4251
43.2170000  21.6350000  44.1610000  0.4251
42.0340000  20.9980000  38.0160000  0.5973
41.3920000  20.0010000  38.3370000  -0.5679
41.4760000  22.0670000  37.4430000  -0.4157
42.1220000  22.7960000  37.1780000  0.2719
40.0540000  22.3260000  37.3430000  -0.0875
39.6450000  21.8100000  38.2110000  0.0969
39.8060000  23.8050000  37.6270000  0.2985
38.7270000  23.8900000  37.4960000  -0.0297
40.1950000  24.2420000  39.0370000  -0.3192
39.7840000  25.2110000  39.3170000  0.0791
39.6990000  23.4890000  39.6500000  0.0791
41.2690000  24.2280000  39.2240000  0.0791
40.3380000  24.7190000  36.5270000  -0.3192
39.8780000  24.4050000  35.5900000  0.0791
40.1670000  25.7790000  36.7160000  0.0791
41.4260000  24.7070000  36.4760000  0.0791
39.2640000  21.7980000  36.1540000  0.5973
38.0460000  21.6740000  36.2590000  -0.5679
39.9170000  21.5300000  35.0200000  -0.4157
40.9050000  21.6860000  34.8870000  0.2719
39.2120000  20.9920000  33.8740000  -0.0597
38.3650000  21.6750000  33.7930000  0.0869
40.0160000  21.1970000  32.5930000  0.1303
41.0450000  20.9040000  32.8030000  0.0187
39.6290000  20.4250000  31.3350000  -0.3204
39.4890000  19.3640000  31.5460000  0.0882
38.6550000  20.7530000  30.9720000  0.0882
40.3710000  20.5230000  30.5430000  0.0882
39.9910000  22.6800000  32.2360000  -0.0430
40.2060000  23.2210000  33.1580000  0.0236
39.0390000  22.8440000  31.7310000  0.0236
41.1240000  23.0540000  31.2840000  -0.0660
41.0940000  24.1010000  30.9840000  0.0186
42.0560000  22.7060000  31.7290000  0.0186
40.9350000  22.6230000  30.3010000  0.0186
38.7070000  19.5760000  34.1120000  0.5973
39.3300000  18.5970000  34.5170000  -0.5679
37.4030000  19.4610000  33.8500000  -0.4157
36.9080000  20.2350000  33.4300000  0.2719
36.6690000  18.2490000  34.1560000  -0.0252
37.1750000  17.3420000  33.8260000  0.0698
35.7910000  18.2870000  33.5120000  0.0698
36.1240000  18.0810000  35.5670000  0.5973
35.6220000  17.0000000  35.8680000  -0.5679
36.2080000  19.1000000  36.4260000  -0.3479
36.5510000  19.9790000  36.0670000  0.2747
35.4670000  19.2890000  37.6570000  -0.2400
35.1990000  18.3760000  38.1890000  0.1426
36.3590000  19.9780000  38.6850000  -0.0094
35.8340000  19.9370000  39.6390000  0.0362
36.5120000  21.0100000  38.3680000  0.0362
37.7170000  19.3090000  38.8830000  0.0187
38.1280000  19.7140000  39.8080000  0.0103
38.3500000  19.6390000  38.0600000  0.0103
37.8100000  17.7900000  38.9990000  -0.0479
37.7270000  17.4310000  37.9730000  0.0621
36.9060000  17.4510000  39.5050000  0.0621
39.0620000  17.2540000  39.6880000  -0.0143
39.0350000  16.1720000  39.8170000  0.1135
39.1470000  17.7590000  40.6510000  0.1135
40.2140000  17.6820000  38.8800000  -0.3854
40.3060000  18.6860000  38.8160000  0.3400
41.0010000  17.2400000  39.3320000  0.3400
40.2560000  17.3420000  37.9300000  0.3400
34.2090000  20.0960000  37.3680000  0.7341
34.0890000  20.6350000  36.2700000  -0.5894
33.2720000  20.1190000  38.3190000  -0.4157
33.4530000  19.5850000  39.1570000  0.2719
32.0240000  20.8360000  38.1520000  0.0143
31.8900000  21.0460000  37.0910000  0.1048
30.9040000  20.0180000  38.7910000  -0.2041
31.0300000  20.1280000  39.8680000  0.0797
30.9990000  18.9760000  38.4880000  0.0797
29.5460000  20.5830000  38.4010000  0.7130
29.2400000  21.7540000  38.6140000  -0.5931
28.6580000  19.7920000  37.7930000  -0.9191
28.8520000  18.8110000  37.6550000  0.4196
27.7610000  20.2060000  37.5850000  0.4196
32.2070000  22.1910000  38.8210000  0.5973
32.4810000  22.2670000  40.0160000  -0.5679
31.7290000  23.2400000  38.1470000  -0.4157